Problem:    
Rows:       105
Columns:    45 (34 integer, 34 binary)
Non-zeros:  302
Status:     INTEGER OPTIMAL
Objective:  value = 13.772856 (MINimum)

   No.   Row name        Activity     Lower bound   Upper bound
------ ------------    ------------- ------------- -------------
     1 r.5                   2013.77             0               
     2 r.6                  -1991.03      -1998.51               
     3 r.7                   13.7729             0               
     4 r.8                  -1981.48      -1997.68               
     5 r.9                   13.7729             0               
     6 r.10                  5.07756       -1999.1               
     7 r.11                  2013.77             0               
     8 r.12                 -1986.23      -1998.83               
     9 r.13                  2013.77             0               
    10 r.14                 -1992.52       -1997.6               
    11 r.15                  13.7729             0               
    12 r.16                  -1983.8      -1997.57               
    13 r.17                  2013.77             0               
    14 r.18                 -1986.23      -1995.19               
    15 r.19                  13.7729             0               
    16 r.20                  12.6009      -1996.17               
    17 r.21                  2013.77             0               
    18 r.22                 -1999.77      -1999.77               
    19 r.23                  13.7729             0               
    20 r.24                    0.226      -1998.83               
    21 r.25                        1             1             = 
    22 r.26                        1             1             = 
    23 r.27                        1             1             = 
    24 r.28                        1             1             = 
    25 r.29                        1             1             = 
    26 r.30                  1996.11        0.9016               
    27 r.31                 -1996.11      -1998.51               
    28 r.32                  1995.25         1.172               
    29 r.33                 -1995.25      -1997.68               
    30 r.34                  1998.51        2.3975               
    31 r.35                 -1998.51      -1998.51               
    32 r.36                  1997.68        2.4274               
    33 r.37                 -1997.68      -1997.68               
    34 r.38                   4.8073        4.8073               
    35 r.39                  -4.8073      -1998.51               
    36 r.40                  1994.08        3.8253               
    37 r.41                 -1994.08      -1997.68               
    38 r.42                 -1991.26      -1994.32               
    39 r.43                  -1981.7       -1985.3               
    40 r.44                 -1991.26      -1994.32               
    41 r.45                  -1981.7       -1985.3               
    42 r.46                    3.888        1.4905               
    43 r.47                   -3.888       -1999.1               
    44 r.48                   4.7502        2.3228               
    45 r.49                  -4.7502      -1998.83               
    46 r.50                   2.3975        2.3975               
    47 r.51                  -2.3975       -1999.1               
    48 r.52                   2.4274        2.4274               
    49 r.53                  -2.4274      -1998.83               
    50 r.54                   8.6953        4.8073               
    51 r.55                  -8.6953       -1999.1               
    52 r.56                  1998.83        3.8253               
    53 r.57                 -1998.83      -1998.83               
    54 r.58                  4.85156      -1994.91               
    55 r.59                 -1986.45      -1986.45               
    56 r.60                  4.85156      -1994.91               
    57 r.61                 -1986.45      -1986.45               
    58 r.62                   1.4905        1.4905               
    59 r.63                  -1.4905       -1997.6               
    60 r.64                   2.3228        2.3228               
    61 r.65                  -2.3228      -1997.57               
    62 r.66                   1997.6        0.9016               
    63 r.67                  -1997.6       -1997.6               
    64 r.68                  1997.57         1.172               
    65 r.69                 -1997.57      -1997.57               
    66 r.70                   6.2978        4.8073               
    67 r.71                  -6.2978       -1997.6               
    68 r.72                   1996.4        3.8253               
    69 r.73                  -1996.4      -1997.57               
    70 r.74                 -1992.75      -1993.41               
    71 r.75                 -1984.03       -1985.2               
    72 r.76                 -1992.75      -1993.41               
    73 r.77                 -1984.03       -1985.2               
    74 r.78                  1995.19        1.4905               
    75 r.79                 -1995.19      -1995.19               
    76 r.80                   5.9222        2.3228               
    77 r.81                  -5.9222      -1996.17               
    78 r.82                   1991.3        0.9016               
    79 r.83                  -1991.3      -1995.19               
    80 r.84                    1.172         1.172               
    81 r.85                   -1.172      -1996.17               
    82 r.86                   1993.7        2.3975               
    83 r.87                  -1993.7      -1995.19               
    84 r.88                   3.5994        2.4274               
    85 r.89                  -3.5994      -1996.17               
    86 r.90                 -1986.45         -1991               
    87 r.91                  12.3749       -1983.8               
    88 r.92                 -1986.45         -1991               
    89 r.93                  12.3749       -1983.8               
    90 r.94                 -1991.26      -1994.32               
    91 r.95                  -1981.7       -1985.3               
    92 r.96                 -1991.26      -1994.32               
    93 r.97                  -1981.7       -1985.3               
    94 r.98                  4.85156      -1994.91               
    95 r.99                 -1986.45      -1986.45               
    96 r.100                 4.85156      -1994.91               
    97 r.101                -1986.45      -1986.45               
    98 r.102                -1992.75      -1993.41               
    99 r.103                -1984.03       -1985.2               
   100 r.104                -1992.75      -1993.41               
   101 r.105                -1984.03       -1985.2               
   102 r.106                -1986.45         -1991               
   103 r.107                 12.3749       -1983.8               
   104 r.108                -1986.45         -1991               
   105 r.109                 12.3749       -1983.8               

   No. Column name       Activity     Lower bound   Upper bound
------ ------------    ------------- ------------- -------------
     1 tt                    13.7729             0               
     2 s_1_1        *              1             0             1 
     3 t_1_1                  4.8073             0               
     4 s_2_1        *              0             0             1 
     5 t_2_1                 1995.25             0               
     6 s_1_2        *              0             0             1 
     7 t_1_2                  8.6953             0               
     8 s_2_2        *              1             0             1 
     9 t_2_2                       0             0               
    10 s_1_3        *              1             0             1 
    11 t_1_3                  6.2978             0               
    12 s_2_3        *              0             0             1 
    13 t_2_3                 1997.57             0               
    14 s_1_4        *              1             0             1 
    15 t_1_4                       0             0               
    16 s_2_4        *              0             0             1 
    17 t_2_4                   1.172             0               
    18 s_1_5        *              1             0             1 
    19 t_1_5                 13.5469             0               
    20 s_2_5        *              0             0             1 
    21 t_2_5                 13.5469             0               
    22 u_1_1_2      *              1             0             1 
    23 u_2_1_2      *              0             0             1 
    24 u_1_1_3      *              1             0             1 
    25 u_2_1_3      *              1             0             1 
    26 u_1_1_4      *              0             0             1 
    27 u_2_1_4      *              0             0             1 
    28 u_1_2_1      *              0             0             1 
    29 u_2_2_1      *              1             0             1 
    30 u_1_2_3      *              0             0             1 
    31 u_2_2_3      *              1             0             1 
    32 u_1_2_4      *              0             0             1 
    33 u_2_2_4      *              1             0             1 
    34 u_1_3_1      *              0             0             1 
    35 u_2_3_1      *              0             0             1 
    36 u_1_3_2      *              1             0             1 
    37 u_2_3_2      *              0             0             1 
    38 u_1_3_4      *              0             0             1 
    39 u_2_3_4      *              0             0             1 
    40 u_1_4_1      *              1             0             1 
    41 u_2_4_1      *              1             0             1 
    42 u_1_4_2      *              1             0             1 
    43 u_2_4_2      *              0             0             1 
    44 u_1_4_3      *              1             0             1 
    45 u_2_4_3      *              1             0             1 

Integer feasibility conditions:

KKT.PE: max.abs.err = 0.00e+00 on row 0
        max.rel.err = 0.00e+00 on row 0
        High quality

KKT.PB: max.abs.err = 8.44e-14 on row 60
        max.rel.err = 2.54e-14 on row 60
        High quality

End of output
